160
160
160
160
160
160
160
160
160
160
160
160
160
160
160
160
160
126
157
26
326
150
421
98
120
85
108
583
204
348
42
71
94
86
207
116
161
123
235
507
89
402
325
92
46
151
276
47
38
504
89
100
344
32
271
120
255
278
201
125
76
582
126
126
126
126
126
126
126
157
26
326
150
421
98
120
85
108
583
204
348
42
71
94
86
207
116
161
123
235
507
89
402
325
92
46
151
276
47
38
504
89
100
344
362
32
54
271
120
255
278
201
125
76
582
174
241
71
109
50
187
244
64
251
117
331
51
64
155
577
178
217
101
459
47
372
369
318
35
313
119
93
69
232
400
307
226
234
390
121
278
96
230
184
156
96
50
178
277
73
157
389
411
33
36
56
320
87
